<DOCUMENT>
<COLORDEN>-1</COLORDEN>
<TIPOORDEN>-1</TIPOORDEN>
<FILASPAGINA>0</FILASPAGINA>
<VISIBILIDAD>
	<VISIBLECOLUMNA name="idpresupuestocontable" >0</VISIBLECOLUMNA>
	<VISIBLECOLUMNA name="fechapresupuestocontable" >1</VISIBLECOLUMNA>
	<VISIBLECOLUMNA name="conceptopresupuestocontable" >1</VISIBLECOLUMNA>
</VISIBILIDAD>
<HORIZONTALHEADER>AAAA/wAAAAAAAAABAAAAAQAAAAMBAAAAAAAAAAAAAAADAQAAAAEAAAAAAAAAZAAAAMgAAAADAQEBAAAAAAAAAAAAAAAAAGT/////AAAAhAAAAAAAAAACAAAAAAAAAAEAAAAAAAAAyAAAAAIAAAAA</HORIZONTALHEADER>
<COLUMNASHORIZONTALHEADER>AAAA/wAAAAAAAAABAAAAAQAAAAQAAAAAAAAAAAAAAAAEDAAAAAIAAAADAAAAAAAAAAIAAAAAAAAA+gAAAAQAAQEAAAAAAAAAAAABAAAAZP////8AAACEAAAAAAAAAAMAAACWAAAAAQAAAAMAAABkAAAAAQAAAAAAAAAAAAAAAgAAAAA=</COLUMNASHORIZONTALHEADER>
<ORDENCOLUMNAS>
	<ORDENCOLUMNA name="idpresupuestocontable" >0</ORDENCOLUMNA>
	<ORDENCOLUMNA name="fechapresupuestocontable" >1</ORDENCOLUMNA>
	<ORDENCOLUMNA name="conceptopresupuestocontable" >2</ORDENCOLUMNA>
</ORDENCOLUMNAS>
<VISIBILIDADMENU>0</VISIBILIDADMENU>
</DOCUMENT>
